c description: Random 2-CNF over 15 variables and 80 clauses
c generator: CNFgen (0.9.0)
c copyright: (C) 2012-2020 Massimo Lauria <massimo.lauria@uniroma1.it>
c url: https://massimolauria.net/cnfgen
c
p cnf 15 80
-5 -13 0
-8 -12 0
9 -12 0
-12 -14 0
5 11 0
3 9 0
-4 -7 0
1 2 0
6 10 0
3 -14 0
-4 13 0
-1 10 0
5 -10 0
-5 10 0
3 8 0
5 14 0
7 13 0
7 -8 0
11 15 0
-3 11 0
3 5 0
4 -8 0
2 5 0
7 11 0
-13 -14 0
3 11 0
-3 -5 0
-8 -11 0
-2 11 0
12 14 0
2 13 0
-3 -15 0
-7 13 0
8 12 0
-9 -12 0
1 -10 0
-5 -15 0
1 14 0
9 -13 0
-3 6 0
-4 6 0
1 -13 0
-5 -9 0
5 -15 0
-6 12 0
-1 15 0
6 -14 0
-2 -11 0
-6 -8 0
6 -8 0
-3 -10 0
6 7 0
-2 3 0
-2 -6 0
-9 10 0
-7 -12 0
12 -13 0
5 -14 0
-9 15 0
8 -13 0
-1 11 0
-12 -15 0
-6 13 0
4 -6 0
8 11 0
6 11 0
-2 8 0
-4 11 0
2 14 0
-5 -11 0
6 -7 0
-5 11 0
-1 -9 0
1 -2 0
-5 -7 0
1 8 0
-3 7 0
-1 2 0
-6 10 0
-8 12 0